# Solution for model GasLib-40
# Objective value = 1.3847973860825610e+01
loadshed[innode_1] 0
loadshed[innode_2] 0
loadshed[innode_3] 0
loadshed[innode_4] 0
loadshed[innode_5] 0
loadshed[innode_6] 0
loadshed[innode_7] 0
loadshed[innode_8] 0
loadshed[source_1] -2.5834456822728979e-01
loadshed[source_2] -8.4133383711152643e-02
loadshed[source_3] 4.3007330603272331e-01
loadshed[sink_1] 0
loadshed[sink_2] 0
loadshed[sink_3] 0
loadshed[sink_4] 0
loadshed[sink_5] 0
loadshed[sink_6] 0
loadshed[sink_7] 0
loadshed[sink_8] 0
loadshed[sink_9] 0
loadshed[sink_10] 0
loadshed[sink_11] 0
loadshed[sink_12] 8.4675508957914547e-01
loadshed[sink_13] 0
loadshed[sink_14] 0
loadshed[sink_15] 0
loadshed[sink_16] 0
loadshed[sink_17] 0
loadshed[sink_18] 0
loadshed[sink_19] 0
loadshed[sink_20] 0
loadshed[sink_21] 0
loadshed[sink_22] 0
loadshed[sink_23] 0
loadshed[sink_24] 0
loadshed[sink_25] 0
loadshed[sink_26] 0
loadshed[sink_27] 0
loadshed[sink_28] 0
loadshed[sink_29] 0
flow[source_1,sink_3] 1.9893204233121008e+02
flow[innode_1,sink_16] 1.6354166666666970e+01
flow[innode_6,sink_13] 2.4379297304422856e+01
flow[sink_13,sink_14] 8.0251306377561882e+00
flow[sink_14,sink_10] -8.32903602891048
flow[sink_25,sink_26] 2.3146452613917450e+02
flow[sink_26,sink_9] 1.3035516262216592e+02
flow[sink_9,sink_18] 1.1400099595549925e+02
flow[sink_26,sink_4] 8.4755196850341918e+01
flow[sink_4,sink_20] 2.2775754410818081e+01
flow[sink_18,sink_6] 9.7646829288832578e+01
flow[sink_25,innode_8] -1.6622370899787370e+02
flow[sink_6,sink_7] 4.8584329288832123e+01
flow[sink_6,sink_22] 3.2708333333333641e+01
flow[sink_7,sink_24] 3.5214526139174396e+01
flow[sink_22,sink_1] 1.6354166666666970e+01
flow[sink_24,sink_21] 1.8860359472507728e+01
flow[sink_21,sink_12] 2.5061928058410587e+00
flow[sink_7,sink_5] -2.9843635170086884e+00
flow[sink_5,sink_17] -1.9338530183675289e+01
flow[sink_17,sink_4] -4.5625275772857151e+01
flow[sink_17,sink_8] 9.9325789225152334e+00
flow[sink_3,sink_23] 16.3541666666697
flow[sink_8,sink_20] -6.4215877441514522e+00
flow[sink_25,sink_20] 0
flow[sink_25,sink_15] -1.0597428111239066e+02
flow[sink_15,sink_29] -6.7579426704748812e+01
flow[sink_29,sink_28] 1.6354166666667879e+01
flow[sink_29,sink_2] 7.1103187740975159e+01
flow[sink_2,sink_15] 5.4749021074308530e+01
flow[sink_29,innode_7] -1.7139094777905825e+02
flow[innode_4,sink_19] 9.0099869362257323e+01
flow[sink_19,innode_3] 5.7391536028910878e+01
flow[innode_4,innode_5] 0
flow[sink_27,innode_5] 0
flow[sink_27,sink_19] -1.6354166666679703e+01
flow[sink_10,sink_11] 3.2708333333333641e+01
flow[sink_10,innode_2] 0
flow[sink_10,innode_3] -5.7391536028910878e+01
flow[innode_6,sink_25] -2.4379297304422856e+01
flow[sink_11,innode_1] 1.6354166666666970e+01
flow[sink_19,innode_2] 0
flow[source_3,innode_4] 9.0099869362257323e+01
flow[source_2,innode_7] 1.7139094777905825e+02
flow[sink_3,innode_8] 1.6622370899787370e+02
pressure[innode_1] 7.4028757320151954e+01
pressure[innode_2] 7.7363074716359350e+01
pressure[innode_3] 77.2359876587098
pressure[innode_4] 81.01325
pressure[innode_5] 81.01325
pressure[innode_6] 7.3935267565517123e+01
pressure[innode_7] 81.01325
pressure[innode_8] 8.0348296177281441e+01
pressure[source_1] 81.01325
pressure[source_2] 81.01325
pressure[source_3] 81.01325
pressure[sink_1] 4.0997829500471930e+01
pressure[sink_2] 7.4628089579883351e+01
pressure[sink_3] 8.0348296177281441e+01
pressure[sink_4] 4.6857361837318720e+01
pressure[sink_5] 4.3673133526203770e+01
pressure[sink_6] 43.0989071108593
pressure[sink_7] 4.2431960077237036e+01
pressure[sink_8] 4.4738932235024521e+01
pressure[sink_9] 4.9831264000762836e+01
pressure[sink_10] 74.1804586277555
pressure[sink_11] 7.4028757320151954e+01
pressure[sink_12] 1.01325
pressure[sink_13] 7.3800868573636890e+01
pressure[sink_14] 7.3786506918770641e+01
pressure[sink_15] 7.4449346092565619e+01
pressure[sink_16] 7.3007107485334274e+01
pressure[sink_17] 4.5113714241976531e+01
pressure[sink_18] 4.5706368185689065e+01
pressure[sink_19] 7.7363074716359350e+01
pressure[sink_20] 4.5186426592262912e+01
pressure[sink_21] 1.9050905647847978e+00
pressure[sink_22] 4.2061598642826937e+01
pressure[sink_23] 8.0183578165621654e+01
pressure[sink_24] 2.1139515225789935e+00
pressure[sink_25] 7.3935267565517123e+01
pressure[sink_26] 5.7633356921113077e+01
pressure[sink_27] 7.7011944719215847e+01
pressure[sink_28] 7.6133931296559538e+01
pressure[sink_29] 7.6429213570176714e+01
interdiction[source_1,sink_3] 0
interdiction[innode_1,sink_16] 0
interdiction[innode_6,sink_13] 0
interdiction[sink_13,sink_14] 0
interdiction[sink_14,sink_10] 0
interdiction[sink_25,sink_26] 0
interdiction[sink_26,sink_9] 0
interdiction[sink_9,sink_18] 0
interdiction[sink_26,sink_4] 0
interdiction[sink_4,sink_20] 0
interdiction[sink_18,sink_6] 0
interdiction[sink_25,innode_8] 0
interdiction[sink_6,sink_7] 0
interdiction[sink_6,sink_22] 0
interdiction[sink_7,sink_24] 0
interdiction[sink_22,sink_1] 0
interdiction[sink_24,sink_21] 0
interdiction[sink_21,sink_12] 0
interdiction[sink_7,sink_5] 0
interdiction[sink_5,sink_17] 0
interdiction[sink_17,sink_4] 0
interdiction[sink_17,sink_8] 0
interdiction[sink_3,sink_23] 0
interdiction[sink_8,sink_20] 0
interdiction[sink_25,sink_20] 1
interdiction[sink_25,sink_15] 0
interdiction[sink_15,sink_29] 0
interdiction[sink_29,sink_28] 0
interdiction[sink_29,sink_2] 0
interdiction[sink_2,sink_15] 0
interdiction[sink_29,innode_7] 0
interdiction[innode_4,sink_19] 0
interdiction[sink_19,innode_3] 0
interdiction[innode_4,innode_5] 0
interdiction[sink_27,innode_5] 1
interdiction[sink_27,sink_19] 0
interdiction[sink_10,sink_11] 0
interdiction[sink_10,innode_2] 1
interdiction[sink_10,innode_3] 0
interdiction[innode_6,sink_25] 0
interdiction[sink_11,innode_1] 0
interdiction[sink_19,innode_2] 0
interdiction[source_3,innode_4] 0
interdiction[source_2,innode_7] 0
interdiction[sink_3,innode_8] 0
WCcheckFlow[source_1,sink_3] 39
WCcheckFlow[innode_1,sink_16] 1
WCcheckFlow[innode_6,sink_13] 13
WCcheckFlow[sink_13,sink_14] 12
WCcheckFlow[sink_14,sink_10] 11
WCcheckFlow[sink_25,sink_26] 15
WCcheckFlow[sink_26,sink_9] 12
WCcheckFlow[sink_9,sink_18] 11
WCcheckFlow[sink_26,sink_4] 2
WCcheckFlow[sink_4,sink_20] 1
WCcheckFlow[sink_18,sink_6] 10
WCcheckFlow[sink_25,innode_8] -36
WCcheckFlow[sink_6,sink_7] 7
WCcheckFlow[sink_6,sink_22] 2
WCcheckFlow[sink_7,sink_24] 3
WCcheckFlow[sink_22,sink_1] 1
WCcheckFlow[sink_24,sink_21] 2
WCcheckFlow[sink_21,sink_12] 1
WCcheckFlow[sink_7,sink_5] 3
WCcheckFlow[sink_5,sink_17] 2
WCcheckFlow[sink_17,sink_4] 0
WCcheckFlow[sink_17,sink_8] 1
WCcheckFlow[sink_3,sink_23] 1
WCcheckFlow[sink_8,sink_20] 0
WCcheckFlow[sink_25,sink_20] 0
WCcheckFlow[sink_25,sink_15] 6
WCcheckFlow[sink_15,sink_29] 5
WCcheckFlow[sink_29,sink_28] 1
WCcheckFlow[sink_29,sink_2] 1
WCcheckFlow[sink_2,sink_15] 0
WCcheckFlow[sink_29,innode_7] 2
WCcheckFlow[innode_4,sink_19] -3
WCcheckFlow[sink_19,innode_3] -6
WCcheckFlow[innode_4,innode_5] 1
WCcheckFlow[sink_27,innode_5] 0
WCcheckFlow[sink_27,sink_19] -1
WCcheckFlow[sink_10,sink_11] 3
WCcheckFlow[sink_10,innode_2] 0
WCcheckFlow[sink_10,innode_3] 7
WCcheckFlow[innode_6,sink_25] -14
WCcheckFlow[sink_11,innode_1] 2
WCcheckFlow[sink_19,innode_2] 1
WCcheckFlow[source_3,innode_4] -1
WCcheckFlow[source_2,innode_7] -1
WCcheckFlow[sink_3,innode_8] 37
